id: 1003
name: 30_70_45_095_100
group: miplib2010
method: 2

Gurobi 7.0.2 (linux64, Matlab) logging started Mon Mar 26 10:11:40 2018


Gurobi 7.0.2 (linux64) logging started Mon Mar 26 10:11:40 2018

Optimize a model with 12526 rows, 10976 columns and 46640 nonzeros
Coefficient statistics:
  Matrix range     [1e+00, 1e+00]
  Objective range  [1e+00, 6e+03]
  Bounds range     [1e+00, 1e+00]
  RHS range        [1e+00, 3e+00]
Presolve removed 12 rows and 10 columns
Presolve time: 0.02s
Presolved: 12514 rows, 10966 columns, 46616 nonzeros

Ordering time: 0.14s

Barrier statistics:
 AA' NZ     : 6.930e+04
 Factor NZ  : 6.097e+05 (roughly 15 MBytes of memory)
 Factor Ops : 7.353e+07 (less than 1 second per iteration)
 Threads    : 1

                  Objective                Residual
Iter       Primal          Dual         Primal    Dual     Compl     Time
   0   3.74129270e+04 -1.72906221e+04  5.45e+00 4.42e-01  2.87e+00     0s
   1   9.42924766e+03 -1.06835173e+04  9.95e-01 1.78e-15  6.73e-01     0s
   2   9.44196908e+02 -3.12147942e+03  6.45e-02 7.33e-15  1.09e-01     0s
   3   1.18042937e+02 -3.93240320e+02  6.57e-03 3.33e-15  1.26e-02     0s
   4   8.76662243e+00 -3.77205728e+01  2.52e-04 1.78e-15  1.24e-03     0s
   5   3.05346714e+00  2.65217086e+00  5.66e-15 1.78e-15  1.12e-05     0s
   6   3.00004108e+00  2.99962354e+00  5.88e-15 1.78e-15  1.21e-08     0s
   7   3.00000000e+00  3.00000000e+00  1.21e-13 1.78e-15  1.23e-14     0s

Barrier solved model in 7 iterations and 0.34 seconds
Optimal objective 3.00000000e+00

Crossover log...

       0 DPushes remaining with DInf 0.0000000e+00                 0s

    8783 PPushes remaining with PInf 0.0000000e+00                 0s
       0 PPushes remaining with PInf 0.0000000e+00                 1s

  Push phase complete: Pinf 0.0000000e+00, Dinf 1.7411639e-10      1s

Iteration    Objective       Primal Inf.    Dual Inf.      Time
    8828    3.0000000e+00   0.000000e+00   0.000000e+00      1s
    8828    3.0000000e+00   0.000000e+00   0.000000e+00      1s

Solved in 8828 iterations and 1.24 seconds
Optimal objective  3.000000000e+00
status: OPTIMAL
